10
0 45 44 66 54 58 3 62 81 43 
19 0 29 37 97 40 100 24 94 37 
36 90 0 22 88 22 89 24 93 21 
31 63 1 0 29 81 72 54 30 15 
85 1 87 47 0 58 21 75 6 87 
98 60 29 35 44 0 34 51 35 45 
34 99 46 20 60 65 0 76 59 81 
34 96 31 61 84 38 63 0 8 42 
72 31 15 3 37 30 70 32 0 8 
74 71 5 30 22 53 33 62 27 0 
